136977
40,6,69,88,13,98,31,65,52,5,30,29,55,97,8,106,9,42,81,19,50,68,99,100,72,82,51,35,75,15,4,103,61,47,14,26,34,83,57,23,92,12,93,80,89,76,28,27,10,59,66,44,87,1,58,24,74,102,43,79,91,60,96,78,3,94,70,101,105,38,104,11,41,67,95,54,71,36,85,48,73,39,37,49,18,32,63,7,53,84,33,2,22,62,45,25,86,46,77,21,17,90,64,16,20,56,40